Maximize
  obj: x3
  + x4 +
  x5
Subject To
  c1:   x1 + x2 + x3 <=2
  c2:  -1 x1 + x2 + x3 <=1
  c3:  x1 - x2 + x3 <=1
  c4:  -1 x1 - x2 + x3 <=0  \comment and ti\ ng




Bounds
  0 <= x1 <=1
  0 <= x2 <= +inf
  -inf <= x3

  x5 > 3
  3 > x5
  x3 free
General
  x4
BIN
  x4
  x3
  x45
End

